100 152110
53 1 60 100 4 67 93 99 61 85 25 74 41 79 33 81 84 36 62 96 76 3 30 35 23 49 38 40 66 20 73 78 95 64 50 24 89 28 51 56 63 94 46 83 12 59 91 10 68 55 82 54 65 2 69 58 88 43 71 11 75 29 9 22 5 52 92 27 16 13 97 39 44 37 32 87 98 90 8 45 42 86 72 21 47 17 6 26 77 48 34 15 31 80 57 19 18 14 7 70 
